c User generated cnf file
p cnf 12 64
2 4 -8 0 
12 -7 9 0 
10 -7 4 0 
2 -9 3 0 
-7 12 10 0 
-11 12 7 0 
7 3 -8 0 
11 -1 5 0 
-12 11 8 0 
10 7 -10 0 
5 1 -5 0 
-11 7 5 0 
11 11 -7 0 
-9 8 2 0 
-11 10 8 0 
10 -10 5 0 
2 -8 1 0 
-4 9 6 0 
6 -11 12 0 
5 -2 3 0 
-8 3 2 0 
4 1 -8 0 
1 1 -8 0 
-1 6 11 0 
7 7 -4 0 
10 8 -3 0 
-8 9 1 0 
11 -12 9 0 
10 -10 9 0 
2 -10 2 0 
11 -8 6 0 
1 -2 1 0 
-10 4 2 0 
-2 7 12 0 
12 2 -1 0 
7 -8 9 0 
5 -3 2 0 
-10 12 12 0 
3 10 -7 0 
-7 6 6 0 
-2 8 5 0 
7 4 -12 0 
11 -9 8 0 
-5 9 1 0 
-3 11 8 0 
5 9 -10 0 
11 -5 5 0 
4 1 -8 0 
-12 12 12 0 
1 8 -8 0 
2 -10 9 0 
10 1 -8 0 
2 -3 9 0 
6 -3 2 0 
-11 7 5 0 
2 -7 10 0 
9 1 -12 0 
-2 3 5 0 
8 -8 3 0 
11 1 -11 0 
6 8 -6 0 
-12 12 11 0 
-2 7 8 0 
7 9 -11 0 
